Version identifier: 20.1.0.0 | 2020-11-10 | 9bedb6d68
Tried aggregator 3 times.
MIP Presolve eliminated 937 rows and 541 columns.
MIP Presolve modified 1728 coefficients.
Aggregator did 96 substitutions.
Reduced MIP has 673 rows, 570 columns, and 2122 nonzeros.
Reduced MIP has 137 binaries, 433 generals, 0 SOSs, and 0 indicators.
Presolve time = 0.01 sec. (4.27 ticks)
Found incumbent of value 49.000000 after 0.02 sec. (6.87 ticks)
Probing fixed 20 vars, tightened 172 bounds.
Probing time = 0.00 sec. (0.50 ticks)
Tried aggregator 2 times.
MIP Presolve eliminated 282 rows and 41 columns.
MIP Presolve modified 57 coefficients.
Aggregator did 17 substitutions.
Reduced MIP has 374 rows, 512 columns, and 1206 nonzeros.
Reduced MIP has 166 binaries, 346 generals, 0 SOSs, and 0 indicators.
Presolve time = 0.00 sec. (1.47 ticks)
Probing time = 0.00 sec. (0.09 ticks)
Tried aggregator 1 time.
Detecting symmetries...
MIP Presolve modified 113 coefficients.
Reduced MIP has 374 rows, 512 columns, and 1206 nonzeros.
Reduced MIP has 171 binaries, 341 generals, 0 SOSs, and 0 indicators.
Presolve time = 0.00 sec. (0.92 ticks)
Probing time = 0.00 sec. (0.09 ticks)
Clique table members: 1.
MIP emphasis: balance optimality and feasibility.
MIP search method: dynamic search.
Parallel mode: deterministic, using up to 24 threads.
Root relaxation solution time = 0.00 sec. (0.82 ticks)

        Nodes                                         Cuts/
   Node  Left     Objective  IInf  Best Integer    Best Bound    ItCnt     Gap

*     0+    0                           49.0000        0.0000           100.00%
      0     0        1.3333    27       49.0000        1.3333      121   97.28%
*     0+    0                           21.0000        1.3333            93.65%
      0     0        5.7778   111       21.0000     Cuts: 106      277   72.49%
*     0+    0                           19.0000        5.7778            69.59%
      0     0        8.0909   169       19.0000      Cuts: 67      411   57.42%
      0     0        8.1667   146       19.0000      Cuts: 55      453   57.02%
      0     0        8.1667   138       19.0000      Cuts: 41      486   57.02%
      0     0        8.2333   152       19.0000      Cuts: 46      524   56.67%
      0     0        8.2333   153       19.0000      Cuts: 31      547   56.67%
      0     0        8.2800   128       19.0000      Cuts: 18      577   56.42%
      0     0        8.3500   136       19.0000      Cuts: 65      615   56.05%
      0     0        8.7429   119       19.0000      Cuts: 44      662   53.98%
      0     0        8.8000   111       19.0000      Cuts: 46      695   53.68%
      0     0        8.8000   115       19.0000      Cuts: 34      720   53.68%
*     0+    0                           17.0000        8.8000            48.24%
*     0+    0                           16.0000        8.8000            45.00%
      0     0        cutoff             16.0000       16.0000      720    0.00%
Elapsed time = 0.17 sec. (70.58 ticks, tree = 0.01 MB, solutions = 5)

Implied bound cuts applied:  15
Mixed integer rounding cuts applied:  4
Zero-half cuts applied:  35
Gomory fractional cuts applied:  2

Root node processing (before b&c):
  Real time             =    0.17 sec. (70.65 ticks)
Parallel b&c, 24 threads:
  Real time             =    0.00 sec. (0.00 ticks)
  Sync time (average)   =    0.00 sec.
  Wait time (average)   =    0.00 sec.
                          ------------
Total (root+branch&cut) =    0.17 sec. (70.65 ticks)

Solution status = Optimal
Solution LB = 16
Solution UB = 16
Runtime = 0.17787 seconds
	Command being timed: "/home/min/git_repos/CS598MEBProject/CNT-ILP/build/cnt -s 2 ./output/k6_n20/simC_c1_k6_n20_u3_s2_del02.input-right.cnp"
	User time (seconds): 1.22
	System time (seconds): 0.04
	Percent of CPU this job got: 654%
	Elapsed (wall clock) time (h:mm:ss or m:ss): 0:00.19
	Average shared text size (kbytes): 0
	Average unshared data size (kbytes): 0
	Average stack size (kbytes): 0
	Average total size (kbytes): 0
	Maximum resident set size (kbytes): 57124
	Average resident set size (kbytes): 0
	Major (requiring I/O) page faults: 0
	Minor (reclaiming a frame) page faults: 11339
	Voluntary context switches: 2476
	Involuntary context switches: 152
	Swaps: 0
	File system inputs: 0
	File system outputs: 16
	Socket messages sent: 0
	Socket messages received: 0
	Signals delivered: 0
	Page size (bytes): 4096
	Exit status: 0
